NAME 
ROWS
 N  OBJ
 G  R0      
 G  R1      
 G  R2      
 G  R3      
 G  R4      
 G  R5      
 G  R6      
 G  R7      
 G  R8      
 G  R9      
 G  R10     
 G  R11     
 G  R12     
 G  R13     
 G  R14     
 G  R15     
 G  R16     
 G  R17     
COLUMNS
    x0        OBJ       1
    x0        R0        1
    x0        R1        1
    x0        R2        1
    x0        R3        1
    x0        R6        1
    x0        R9        1
    x1        OBJ       1
    x1        R0        1
    x1        R1        1
    x1        R2        1
    x1        R4        1
    x1        R7        1
    x1        R10       1
    x2        OBJ       1
    x2        R0        1
    x2        R1        1
    x2        R2        1
    x2        R5        1
    x2        R8        1
    x2        R11       1
    x3        OBJ       1
    x3        R0        1
    x3        R3        1
    x3        R4        1
    x3        R5        1
    x3        R6        1
    x3        R12       1
    x4        OBJ       1
    x4        R1        1
    x4        R3        1
    x4        R4        1
    x4        R5        1
    x4        R7        1
    x4        R13       1
    x5        OBJ       1
    x5        R2        1
    x5        R3        1
    x5        R4        1
    x5        R5        1
    x5        R8        1
    x5        R14       1
    x6        OBJ       1
    x6        R0        1
    x6        R3        1
    x6        R6        1
    x6        R7        1
    x6        R8        1
    x6        R15       1
    x7        OBJ       1
    x7        R1        1
    x7        R4        1
    x7        R6        1
    x7        R7        1
    x7        R8        1
    x7        R16       1
    x8        OBJ       1
    x8        R2        1
    x8        R5        1
    x8        R6        1
    x8        R7        1
    x8        R8        1
    x8        R17       1
    x9        OBJ       1
    x9        R0        1
    x9        R9        1
    x9        R10       1
    x9        R11       1
    x9        R12       1
    x9        R15       1
    x10       OBJ       1
    x10       R1        1
    x10       R9        1
    x10       R10       1
    x10       R11       1
    x10       R13       1
    x10       R16       1
    x11       OBJ       1
    x11       R2        1
    x11       R9        1
    x11       R10       1
    x11       R11       1
    x11       R14       1
    x11       R17       1
    x12       OBJ       1
    x12       R3        1
    x12       R9        1
    x12       R12       1
    x12       R13       1
    x12       R14       1
    x12       R15       1
    x13       OBJ       1
    x13       R4        1
    x13       R10       1
    x13       R12       1
    x13       R13       1
    x13       R14       1
    x13       R16       1
    x14       OBJ       1
    x14       R5        1
    x14       R11       1
    x14       R12       1
    x14       R13       1
    x14       R14       1
    x14       R17       1
    x15       OBJ       1
    x15       R6        1
    x15       R9        1
    x15       R12       1
    x15       R15       1
    x15       R16       1
    x15       R17       1
    x16       OBJ       1
    x16       R7        1
    x16       R10       1
    x16       R13       1
    x16       R15       1
    x16       R16       1
    x16       R17       1
    x17       OBJ       1
    x17       R8        1
    x17       R11       1
    x17       R14       1
    x17       R15       1
    x17       R16       1
    x17       R17       1
RHS
    RHS1      R0        1
    RHS1      R1        1
    RHS1      R2        1
    RHS1      R3        1
    RHS1      R4        1
    RHS1      R5        1
    RHS1      R6        1
    RHS1      R7        1
    RHS1      R8        1
    RHS1      R9        1
    RHS1      R10       1
    RHS1      R11       1
    RHS1      R12       1
    RHS1      R13       1
    RHS1      R14       1
    RHS1      R15       1
    RHS1      R16       1
    RHS1      R17       1
BOUNDS
 UP BND1      x0        1
 UP BND1      x1        1
 UP BND1      x2        1
 UP BND1      x3        1
 UP BND1      x4        1
 UP BND1      x5        1
 UP BND1      x6        1
 UP BND1      x7        1
 UP BND1      x8        1
 UP BND1      x9        1
 UP BND1      x10       1
 UP BND1      x11       1
 UP BND1      x12       1
 UP BND1      x13       1
 UP BND1      x14       1
 UP BND1      x15       1
 UP BND1      x16       1
 UP BND1      x17       1
ENDATA
